Route #1: 28 33 65 71 29 12 76 30 51 9 81 79 78 34 50 3 68 54 26 58 
Route #2: 52 82 45 83 5 59 98 14 38 44 16 86 61 85 99 94 6 96 13 97 37 43 100 91 93 17 48 60 89 
Route #3: 95 92 42 15 2 72 39 67 23 75 73 21 40 53 87 57 41 22 74 56 4 55 25 24 80 77 
Route #4: 27 69 31 63 64 36 47 19 11 62 90 88 7 18 84 8 46 49 10 32 20 66 35 70 1 
Objective: 74536.6
